p edge 30 37 20
v 2 5 6
v 3 15 28 29
v 1 12
v 3 8 16 22
v 1 25
v 2 7 17
v 1 18
v 1 30
v 1 27
v 2 10 13
v 2 2 4
v 1 23
v 1 20
v 2 3 11
v 1 1
v 1 24
v 1 26
v 2 19 21
v 1 14
v 1 9
e 1 4
e 1 6
e 1 9
e 2 20
e 3 15
e 3 21
e 5 8
e 5 27
e 6 15
e 6 16
e 6 18
e 6 22
e 7 24
e 7 27
e 8 23
e 8 28
e 9 16
e 9 29
e 11 14
e 11 16
e 11 17
e 11 23
e 12 20
e 14 15
e 14 17
e 14 25
e 15 17
e 16 17
e 16 21
e 16 23
e 17 18
e 18 24
e 20 29
e 21 30
e 23 27
e 25 30
e 28 29
